c cnf/enc2_burglary.cnf
c bif/bulglary.bif
c
p cnf 12 18
c weights 1 1 1 1 0.7 0.30000000000000004 1 1 1 1 0.2 0.8 1 1 1 1 0.9 0.09999999999999998 0.8 0.19999999999999996 0.1 0.9 0.0 1.0
1 2 0
-1 -2 0
-3 1 0
3 2 0
4 5 0
-4 -5 0
-6 4 0
6 5 0
7 8 0
-7 -8 0
-1 -4 -9 7 0
-1 -5 -10 7 0
-2 -4 -11 7 0
-2 -5 -12 7 0
-1 -4 9 8 0
-1 -5 10 8 0
-2 -4 11 8 0
-2 -5 12 8 0
